c 1 NoRes
c 2 NoReplayGain
c 3 CBR_8
c 4 VBRRange_high
c 5 ABR_320
c 6 Downmix
c 7 ReplayGainFast
c 8 MidSideStereo
c 9 VBRRange_low
c 10 Freeformat
c 11 HighpassWidth_2000
c 12 Resampling_8
c 13 Root
c 14 LowpassWidth_1000
c 15 Highpass
c 16 Mono
c 17 VBR
c 18 VBRRange
c 19 DualChannels
c 20 Stereo
c 21 CBR_160
c 22 Resampling_22
c 23 CRC
c 24 Highpass_25000
c 25 HighpassValue
c 26 HighpassWidth_1000
c 27 LowpassWidth_2000
c 28 Lowpass
c 29 CBRRange
c 30 HighpassWidth
c 31 LowpassValue
c 32 JointStereo
c 33 Highpass_20000
c 34 ABR
c 35 CBR
c 36 CBR_320
c 37 Lowpass_30000
c 38 ReplayGain
c 39 Lowpass_5000
c 40 Mode
c 41 SwapBytes
c 42 Lowpass_20000
c 43 Bitrate
c 44 ReplayGainAccurate
c 45 VBRRange_wide
c 46 LowpassWidth
c 47 Lowpass_10000
c 48 Resampling_44
c 49 Resampling_48
c 50 ABR_8
c 51 ABR_160
c 52 Resampling
p cnf 52 111
13 0
13 -23 0
13 -41 0
13 -6 0
13 -1 0
13 -28 0
13 -15 0
13 -40 0
13 -43 0
13 -52 0
13 -38 0
40 -13 0
43 -13 0
52 -13 0
38 -13 0
15 -25 0
15 -30 0
25 -15 0
30 -15 0
17 -34 0
17 -18 0
34 18 -17 0
-34 -18 0
18 -9 0
18 -45 0
18 -4 0
9 45 4 -18 0
-9 -45 0
-9 -4 0
-45 -4 0
25 -33 0
25 -24 0
25 -37 0
33 24 37 -25 0
-33 -24 0
-33 -37 0
-24 -37 0
28 -31 0
28 -46 0
31 -28 0
46 -28 0
29 -3 0
29 -21 0
29 -36 0
3 21 36 -29 0
-3 -21 0
-3 -36 0
-21 -36 0
30 -26 0
30 -11 0
26 11 -30 0
-26 -11 0
31 -39 0
31 -47 0
31 -42 0
39 47 42 -31 0
-39 -47 0
-39 -42 0
-47 -42 0
34 -50 0
34 -51 0
34 -5 0
50 51 5 -34 0
-50 -51 0
-50 -5 0
-51 -5 0
35 -29 0
35 -10 0
29 -35 0
38 -2 0
38 -7 0
38 -44 0
2 7 44 -38 0
-2 -7 0
-2 -44 0
-7 -44 0
40 -16 0
40 -20 0
40 -32 0
40 -8 0
40 -19 0
16 20 32 8 19 -40 0
-16 -20 0
-16 -32 0
-16 -8 0
-16 -19 0
-20 -32 0
-20 -8 0
-20 -19 0
-32 -8 0
-32 -19 0
-8 -19 0
43 -35 0
43 -17 0
35 17 -43 0
-35 -17 0
46 -14 0
46 -27 0
14 27 -46 0
-14 -27 0
52 -12 0
52 -22 0
52 -48 0
52 -49 0
12 22 48 49 -52 0
-12 -22 0
-12 -48 0
-12 -49 0
-22 -48 0
-22 -49 0
-48 -49 0
